134921
82 107 49 56 126 133 134 73 130 124 32 89 46 129 42 118 4 61 85 66 91 71 44 145 11 62 83 16 132 136 43 12 31 28 115 96 5 51 39 33 25 141 121 48 17 79 70 103 74 14 108 60 58 84 15 75 64 95 92 117 67 144 90 102 34 13 40 109 143 87 0 57 22 123 65 112 69 26 119 146 135 140 36 149 35 86 94 8 127 1 54 37 47 52 148 55 29 2 72 105 97 110 68 19 131 59 106 137 88 53 30 18 41 63 80 138 20 125 142 76 7 24 116 114 98 3 147 38 23 50 100 120 77 101 9 10 128 99 111 6 21 81 122 78 104 45 27 93 113 139 
